# Objective value = 95600
x66 0
x67 0
x68 1
x69 1
x70 0
x71 0
x72 0
x73 1
x74 1
x75 0
x76 0
x77 1
x78 1
x79 0
x80 1
x81 0
x82 1
x83 1
x84 0
x85 1
x86 1
x87 0
x88 1
x89 1
x90 0
x91 1
x92 1
x93 1
x94 1
x95 0
x96 0
x97 1
x98 0
x99 0
x100 0
x101 0
x102 0
x103 1
x104 1
x105 0
x106 1
x107 1
x108 1
x109 1
x110 0
x111 1
x112 0
x113 0
x114 1
x115 0
x116 0
x117 0
x118 0
x119 1
x120 0
x121 0
x122 1
x123 1
x124 0
x125 1
x126 1
x127 1
x128 1
x129 0
x130 1
x131 0
x132 0
x133 1
x134 1
x135 0
x136 1
x137 1
x138 1
x139 1
x140 0
x141 1
x142 0
x143 1
x144 1
x145 0
x146 0
x147 1
x148 0
x149 0
x150 0
x151 0
x152 1
x153 0
x154 1
x155 0
x156 0
x157 0
x158 1
x159 1
x160 0
x161 1
x162 1
x163 1
x164 1
x165 0
x166 1
x167 0
x168 1
x169 1
x170 0
x171 0
x172 1
x173 1
x174 0
x175 1
x176 1
x177 1
x178 1
x179 0
x180 1
x181 0
x182 1
x183 1
x184 0
x185 1
x186 0
x187 1
x188 1
x189 0
x190 1
x191 1
x192 1
x193 1
x194 0
x195 1
x196 0
x197 1
x198 1
x199 0
x200 1
x201 1
x202 0
x203 1
x204 1
x205 0
x206 1
x207 1
x208 0
x209 1
x210 0
x211 0
x212 1
x213 0
x214 1
x215 0
x216 0
x217 0
x218 1
x219 1
x220 0
x221 1
x222 1
x223 1
x224 1
x225 0
x226 0
x227 1
x228 1
x229 0
x230 1
x231 1
x232 1
x233 1
x234 0
x235 1
x236 1
x237 0
x238 0
x239 0
x240 1
x241 0
x242 1
x243 0
x244 1
x245 0
x246 0
x247 0
x248 1
x249 1
x250 1
x251 0
x252 0
x253 1
x254 1
x255 0
x256 1
x257 1
x258 0
x259 0
x260 1
x261 1
x262 1
x263 0
x264 1
x265 1
x266 1
x267 0
x268 1
x269 1
x270 0
x271 1
x272 0
x273 1
x274 1
x275 1
x276 0
x277 1
x278 1
x279 1
x280 0
x281 1
x282 1
x283 0
x284 1
x285 1
x286 0
x287 1
x288 1
x289 1
x290 0
x291 1
x292 1
x293 1
x294 0
x295 1
x296 1
x297 0
x298 1
x299 1
x300 1
x301 0
x302 1
x303 1
x304 1
x305 0
x306 1
x307 1
x308 1
x309 0
x310 1
x311 1
x312 0
x313 1
x314 1
x315 1
x316 1
x317 1
x318 1
x319 0
x320 0
x321 1
x322 0
x323 0
x324 0
x325 1
x326 0
x327 0
x328 1
x329 0
x330 0
x331 0
x332 0
x333 0
x334 0
x335 1
x336 0
x337 1
x338 0
x339 1
x340 1
x341 1
x342 0
x343 1
x344 1
x345 0
x346 1
x347 1
x348 1
x349 1
x350 1
x351 0
x352 0
x353 1
x354 1
x355 0
x356 1
x357 1
x358 1
x359 1
x360 0
x361 1
x362 1
x363 0
x364 1
x365 1
x366 1
x367 1
x368 1
x369 0
x370 1
x371 0
x372 1
x373 1
x374 0
x375 1
x376 1
x377 1
x378 1
x379 0
x380 1
x381 1
x382 0
x383 1
x384 1
x385 1
x386 1
x387 1
x388 0
x389 1
x390 1
x391 0
x392 0
x393 1
x394 0
x395 1
x396 1
x397 1
x398 1
x399 0
x400 1
x401 1
x402 0
x403 1
x404 1
x405 1
x406 1
x407 1
x408 0
x409 1
x410 1
x411 1
x412 1
x413 0
x414 1
x415 1
x416 0
x417 0
x418 0
x419 0
x420 1
x421 0
x422 0
x423 1
x424 0
x425 0
x426 0
x427 0
x428 0
x429 1
x430 0
x431 0
x432 0
x433 0
x434 0
x435 1
x436 1
x437 0
x438 1
x439 1
x440 1
x441 0
x442 1
x443 1
x444 0
x445 0
x446 1
x447 1
x448 0
x449 1
x450 1
x451 1
x452 0
x453 1
x454 1
x455 1
x456 1
x457 0
x458 1
x459 1
x460 0
x461 1
x462 1
x463 1
x464 0
x465 1
x466 1
x467 1
x468 1
x469 1
x470 1
x471 0
x472 0
x473 1
x474 0
x475 1
x476 0
x477 1
x478 0
x479 0
x480 0
x481 0
x482 0
x483 0
x484 0
x485 1
x486 1
x487 1
x488 1
x489 0
x490 1
x491 0
x492 1
x493 1
x494 1
x495 1
x496 1
x497 1
x498 0
x499 0
x500 1
x501 1
x502 1
x503 1
x504 0
x505 0
x506 0
x507 1
x508 1
x509 1
x510 1
x511 1
x512 1
x513 0
x514 1
x515 1
x516 1
x517 0
x518 0
x519 0
x520 1
x521 0
x522 1
x523 0
x524 0
x525 0
x526 0
x527 0
x528 0
x529 1
x530 0
x531 0
x532 0
x533 1
x534 1
x535 1
x536 1
x537 0
x538 1
x539 0
x540 1
x541 1
x542 1
x543 1
x544 1
x545 1
x546 0
x547 1
x548 1
x549 0
x550 1
x551 0
x552 1
x553 0
x554 0
x555 1
x556 0
x557 0
x558 1
x559 0
x560 0
x561 0
x562 0
x563 0
x564 1
x565 0
x566 0
x567 1
x568 0
x569 0
x570 1
x571 0
x572 1
x573 1
x574 1
x575 1
x576 1
x577 0
x578 1
x579 1
x580 1
x581 1
x582 1
x583 0
x584 1
x585 1
x586 0
x587 1
x588 0
x589 0
x590 1
x591 0
x592 1
x593 1
x594 1
x595 1
x596 1
x597 0
x598 1
x599 1
x600 1
x601 1
x602 1
x603 0
x604 1
x605 1
x606 0
x607 1
x608 0
x609 1
x610 0
x611 1
x612 0
x613 1
x614 1
x615 1
x616 1
x617 1
x618 0
x619 1
x620 0
x621 1
x622 1
x623 1
x624 0
x625 1
x626 1
x627 0
x628 1
x629 0
x630 1
x631 1
x632 0
x633 1
x634 0
x635 1
x636 1
x637 1
x638 1
x639 1
x640 1
x641 1
x642 0
x643 1
x644 1
x645 1
x646 0
x647 1
x648 1
x649 0
x650 1
x651 0
x652 1
x653 1
x654 1
x655 1
x656 1
x657 1
x658 0
x659 0
x660 0
x661 0
x662 0
x663 0
x664 0
x665 1
x666 0
x667 0
x668 0
x669 1
x670 0
x671 0
x672 1
x673 0
x674 1
x675 0
x676 0
x677 0
x678 0
x679 0
x680 1
x681 0
x682 1
x683 1
x684 1
x685 0
x686 1
x687 1
x688 1
x689 0
x690 1
x691 1
x692 1
x693 0
x694 1
x695 1
x696 0
x697 1
x698 0
x699 1
x700 1
x701 1
x702 1
x703 0
x704 0
x705 1
x706 0
x707 1
x708 1
x709 1
x710 1
x711 1
x712 1
x713 1
x714 0
x715 1
x716 1
x717 1
x718 0
x719 1
x720 1
x721 0
x722 1
x723 0
x724 1
x725 1
x726 1
x727 1
x728 0
x729 1
x730 1
x731 0
x732 0
x733 1
x734 0
x735 0
x736 0
x737 1
x738 0
x739 0
x740 1
x741 0
x742 0
x743 0
x744 1
x745 1
x746 0
x747 0
x748 1
x749 1
x750 0
x751 1
x752 1
x753 1
x754 0
x755 1
x756 1
x757 1
x758 1
x759 1
x760 1
x761 0
x762 1
x763 0
x764 0
x765 0
x766 1
x767 1
x768 0
x769 1
x770 1
x771 1
x772 0
x773 1
x774 1
x775 1
x776 1
x777 1
x778 1
x779 0
x780 1
x781 1
x782 0
x783 1
x784 0
x785 1
x786 1
x787 0
x788 1
x789 0
x790 1
x791 0
x792 1
x793 1
x794 1
x795 1
x796 1
x797 1
x798 0
x799 1
x800 1
x801 0
x802 1
x803 1
x804 0
x805 1
x806 1
x807 1
x808 1
x809 0
x810 1
x811 0
x812 1
x813 1
x814 1
x815 1
x816 1
x817 0
x818 1
x819 0
x820 1
x821 0
x822 1
x823 1
x824 1
x825 1
x826 0
x827 0
x828 0
x829 0
x830 1
x831 1
x832 1
x833 0
x834 0
x835 0
x836 0
x837 0
x838 1
x839 0
x840 0
x841 1
x842 1
x843 0
x844 0
x845 0
x846 0
x847 0
x848 0
x849 1
x850 1
x851 1
x852 0
x853 1
x854 0
x855 1
x856 1
x857 1
x858 1
x859 1
x860 0
x861 1
x862 1
x863 1
x864 0
x865 1
x866 1
x867 1
x868 1
x869 0
x870 0
x871 1
x872 1
x873 1
x874 1
x875 0
x876 1
x877 0
x878 1
x879 1
x880 1
x881 1
x882 1
x883 0
x884 1
x885 1
x886 1
x887 0
x888 1
x889 1
x890 1
x891 1
x892 0
x893 1
x894 0
x895 1
x896 0
x897 1
x898 1
x899 0
x900 1
x901 1
x902 0
x903 1
x904 1
x905 1
x906 1
x907 0
x908 1
x909 1
x910 1
x911 0
x912 1
x913 1
x914 1
x915 1
x916 0
x917 1
x918 1
x919 0
x920 1
x921 0
x922 1
x923 1
x924 1
x925 1
x926 1
x927 0
x928 1
x929 1
x930 1
x931 1
x932 0
x933 1
x934 1
x935 1
x936 0
x937 1
x938 1
x939 1
x940 1
x941 0
x942 1
x943 1
x944 1
x945 0
x946 1
x947 0
x948 1
x949 1
x950 1
x951 1
x952 1
x953 0
x954 1
x955 1
x956 1
x957 0
x958 0
x959 1
x960 1
x961 1
x962 0
x963 1
x964 1
x965 1
x966 1
x967 0
x968 1
x969 1
x970 1
x971 1
x972 1
x973 0
x974 1
x975 0
x976 0
x977 0
x978 0
x979 0
x980 1
x981 0
x982 1
x983 1
x984 0
x985 1
x986 0
x987 0
x988 0
x989 1
x990 0
x991 0
x992 0
x993 0
x994 1
x995 0
x996 0
x997 0
x998 0
x999 0
x1000 0
x1001 1
x1002 0
x1003 1
x1004 1
x1005 1
x1006 1
x1007 1
x1008 1
x1009 1
x1010 0
x1011 1
x1012 1
x1013 1
x1014 0
x1015 1
x1016 1
x1017 0
x1018 1
x1019 1
x1020 1
x1021 1
x1022 0
x1023 1
x1024 1
x1025 1
x1026 1
x1027 1
x1028 0
x1029 0
x1030 0
x1031 0
x1032 1
x1033 1
x1034 1
x1035 1
x1036 1
x1037 1
x1038 1
x1039 0
x1040 1
x1041 1
x1042 1
x1043 0
x1044 1
x1045 1
x1046 0
x1047 1
x1048 1
x1049 1
x1050 1
x1051 0
x1052 1
x1053 1
x1054 1
x1055 1
x1056 1
x1057 0
x1058 1
x1059 1
x1060 0
x1061 1
x1062 0
x1063 0
x1064 0
x1065 1
x1066 0
x1067 0
x1068 0
x1069 1
x1070 0
x1071 1
x1072 0
x1073 1
x1074 0
x1075 0
x1076 1
x1077 0
x1078 0
x1079 0
x1080 0
x1081 1
x1082 0
x1083 0
x1084 0
x1085 0
x1086 0
x1087 1
x1088 0
x1089 0
x1090 0
x1091 1
x1092 0
x1093 1
x1094 1
x1095 1
x1096 1
x1097 1
x1098 1
x1099 1
x1100 0
x1101 0
x1102 1
x1103 1
x1104 0
x1105 1
x1106 1
x1107 0
x1108 1
x1109 1
x1110 1
x1111 1
x1112 0
x1113 1
x1114 1
x1115 1
x1116 1
x1117 1
x1118 0
x1119 1
x1120 1
x1121 0
x1 1
x2 0
x3 0
x4 1
x5 0
x6 0
x7 0
x8 0
x9 1
x10 0
x11 1
x12 0
x13 0
x14 1
x15 0
x16 0
x17 0
x18 0
x19 1
x20 0
x21 0
x22 1
x23 0
x24 0
x25 0
x26 0
x27 0
x28 1
x29 0
x30 0
x31 0
x32 0
x33 1
x34 0
x35 0
x36 0
x37 1
x38 0
x39 0
x40 1
x41 0
x42 1
x43 0
x44 0
x45 0
x46 0
x47 1
x48 0
x49 0
x50 1
x51 0
x52 0
x53 0
x54 0
x55 1
x56 0
x57 0
x58 0
x59 0
x60 0
x61 1
x62 0
x63 0
x64 1
x65 0
